Medium-instances_NetworkFacilityLocation/2023-03-27_20hr-25min-09sec/Nodes10_Arcs15_LocNodes8/Formulation-1Instance-3.log

Gurobi 9.5.2 (win64) logging started Mon Mar 27 20:28:55 2023

Set parameter LogFile to value "2023-03-27_20hr-25min-09sec/Nodes10_Arcs15_LocNodes8/Formulation-1Instance-3.log"
Set parameter TimeLimit to value 600
Set parameter IntFeasTol to value 1e-09
Set parameter DualReductions to value 0
Set parameter NonConvex to value 2
Gurobi Optimizer version 9.5.2 build v9.5.2rc0 (win64)
Thread count: 4 physical cores, 8 logical processors, using up to 8 threads
Optimize a model with 44 rows, 76 columns and 162 nonzeros
Model fingerprint: 0x73b71f90
Model has 8 quadratic objective terms
Model has 25 SOS constraints
Variable types: 68 continuous, 8 integer (8 binary)
Coefficient statistics:
  Matrix range     [7e-02, 2e+02]
  Objective range  [3e+00, 2e+02]
  QObjective range [2e+00, 2e+00]
  Bounds range     [1e+00, 1e+00]
  RHS range        [1e-01, 1e+03]
Presolve time: 0.00s
Presolved: 61 rows, 86 columns, 203 nonzeros
Presolved model has 25 SOS constraint(s)
Presolved model has 8 bilinear constraint(s)
Variable types: 78 continuous, 8 integer (8 binary)

Root relaxation: unbounded, 46 iterations, 0.00 seconds (0.00 work units)

    Nodes    |    Current Node    |     Objective Bounds      |     Work
 Expl Unexpl |  Obj  Depth IntInf | Incumbent    BestBd   Gap | It/Node Time

     0     0  postponed    0               -          -      -     -    0s
     0     0  postponed    0               -          -      -     -    0s
Exploring 100 nodes in MinRel heuristic
H    0     0                    -3479.048989          -      -     -    0s
Feasible solution found by MinRel heuristic at node 15
     0     2  postponed    0      -3479.0490          -      -     -    0s
H  335   154                    104881.31743          -      -   8.7    0s
H  343   154                    105617.11813          -      -   8.5    0s
*  508   170              24    106441.85581          -      -   7.1    0s
*  510   170              25    106614.44784          -      -   7.1    0s
*  512   170              26    106724.27874          -      -   7.0    0s
*  514   170              27    106728.51509          -      -   7.0    0s
*  515   170              27    106728.68704          -      -   7.0    0s
* 1225   365              26    108361.78505          -      -   6.2    0s
* 1227   365              27    108738.36171          -      -   6.2    0s
* 1229   365              28    108880.12250          -      -   6.2    0s
* 1231   365              29    108885.58806          -      -   6.2    0s
* 1232   365              29    108885.80992          -      -   6.2    0s
H 1322   365                    128540.52217          -      -   6.3    0s
H 1357   365                    128551.04529          -      -   6.2    0s
* 1748   247              47    128554.27607          -      -   5.7    0s
* 2235   290              43    128563.21434 156401.182  21.7%   5.1    0s
* 2240   290              45    128563.22455 156401.182  21.7%   5.1    0s
* 2465   290              47    128564.82952 135295.629  5.24%   4.8    0s
* 2468   290              49    128564.90127 135295.629  5.24%   4.8    0s
* 2470   290              50    128564.90346 135295.629  5.24%   4.8    0s
* 2536   409              62    128565.12355 133167.144  3.58%   4.7    0s
* 2538   409              63    128565.13438 133167.144  3.58%   4.7    0s
* 2688   409              37    128566.10038 131090.201  1.96%   4.5    0s
* 2691   409              39    128566.16469 131090.201  1.96%   4.5    0s
* 2693   409              40    128566.16672 131090.201  1.96%   4.5    0s
H 2733   409                    128571.76500 131090.201  1.96%   4.5    0s
* 2805   409              66    128571.76510 130971.529  1.87%   4.4    0s
H 4766   143                    128571.79081 128926.996  0.28%   4.7    0s
* 4793   143              61    128571.89960 128926.996  0.28%   4.7    0s
H 5075   279                    128571.90758 128926.996  0.28%   4.5    0s
* 5117   279              62    128572.09366 128926.996  0.28%   4.5    0s
* 5202   279              66    128572.10786 128803.494  0.18%   4.4    0s
* 5585   316              91    128572.11472 128611.546  0.03%   4.2    1s
* 5588   316              92    128572.11497 128611.546  0.03%   4.2    1s
* 5589   316              90    128572.11499 128611.546  0.03%   4.2    1s
* 5590   316              89    128572.11524 128611.546  0.03%   4.2    1s
* 5695   316              75    128572.11603 128611.546  0.03%   4.2    1s
* 5696   316              75    128572.11620 128611.546  0.03%   4.2    1s
H 5772   316                    128572.13091 128611.546  0.03%   4.1    1s
* 5986   326              73    128572.13148 128579.895  0.01%   4.0    1s
* 5988   326              74    128572.13150 128579.895  0.01%   4.0    1s
* 6005   326              63    128572.13199 128579.895  0.01%   4.0    1s
* 6007   326              64    128572.13200 128579.895  0.01%   4.0    1s
H 6030   326                    128572.13562 128579.895  0.01%   4.0    1s
H 6180   326                    128572.13563 128577.997  0.00%   3.9    1s

Explored 6515 nodes (24732 simplex iterations) in 1.08 seconds (0.14 work units)
Thread count was 8 (of 8 available processors)

Solution count 10: 128572 128572 128572 ... 128572

Optimal solution found (tolerance 1.00e-04)
Best objective 1.285721356324e+05, best bound 1.285724860074e+05, gap 0.0003%

User-callback calls 13333, time in user-callback 0.12 sec
